# 63599
param n := 25;
param s := 1;
set E :=  (0,1) (0,3) (1,5) (1,20) (2,5) (2,18) (2,19) (3,23) (4,7) (4,21) (4,24) (5,7) (5,8) (5,11) (5,12) (5,16) (5,17) (6,11) (6,13) (6,24) (8,14) (8,16) (8,23) (9,14) (9,19) (10,16) (11,13) (11,14) (11,17) (13,20) (15,16) (20,24) (22,23);
